Cost: 361
0-17-40-32-25-9-39-12-26-0
0-4-45-29-5-37-36-21-30-0
0-2-28-22-42-41-43-23-33-0
0-46-8-35-14-11-38-7-0
0-34-52-27-0
Cost: 361
0-26-12-39-9-25-32-40-17-0
0-30-21-36-37-5-29-45-4-0
0-28-22-42-41-43-23-33-6-0
0-7-38-11-14-35-8-46-0
0-27-52-34-0
Cost: 361
0-17-40-32-25-9-39-12-26-0
0-4-45-29-5-37-36-21-30-0
0-2-28-22-42-41-43-23-33-0
0-46-8-35-14-11-38-7-0
0-34-52-27-0
Cost: 361
0-7-38-11-14-35-8-46-0
0-17-40-32-25-9-39-12-26-0
0-27-52-34-0
0-30-21-36-37-5-29-45-4-0
0-28-22-42-41-43-23-33-6-0
Cost: 361
0-34-52-27-0
0-7-38-11-14-35-8-46-0
0-26-12-39-9-25-32-40-17-0
0-28-22-42-41-43-23-33-6-0
0-30-21-36-37-5-29-45-4-0
Cost: 361
0-30-21-36-37-5-29-45-4-0
0-46-8-35-14-11-38-7-0
0-17-40-32-25-9-39-12-26-0
0-27-52-34-0
0-2-28-22-42-41-43-23-33-0
Cost: 361
0-26-12-39-9-25-32-40-17-0
0-27-52-34-0
0-6-33-23-43-41-42-22-28-0
0-46-8-35-14-11-38-7-0
0-30-21-36-37-5-29-45-4-0
Cost: 361
0-26-12-39-9-25-32-40-17-0
0-27-52-34-0
0-6-33-23-43-41-42-22-28-0
0-46-8-35-14-11-38-7-0
0-30-21-36-37-5-29-45-4-0
Cost: 361
0-26-12-39-9-25-32-40-17-0
0-27-52-34-0
0-6-33-23-43-41-42-22-28-0
0-46-8-35-14-11-38-7-0
0-30-21-36-37-5-29-45-4-0
Cost: 361
0-26-12-39-9-25-32-40-17-0
0-27-52-34-0
0-6-33-23-43-41-42-22-28-0
0-46-8-35-14-11-38-7-0
0-30-21-36-37-5-29-45-4-0
Cost: 361
0-27-52-34-0
0-30-21-36-37-5-29-45-4-0
0-7-38-11-14-35-8-46-0
0-17-40-32-25-9-39-12-26-0
0-6-33-23-43-41-42-22-28-0
Cost: 361
0-27-52-34-0
0-30-21-36-37-5-29-45-4-0
0-7-38-11-14-35-8-46-0
0-17-40-32-25-9-39-12-26-0
0-6-33-23-43-41-42-22-28-0
Cost: 361
0-27-52-34-0
0-30-21-36-37-5-29-45-4-0
0-7-38-11-14-35-8-46-0
0-17-40-32-25-9-39-12-26-0
0-6-33-23-43-41-42-22-28-0
Cost: 361
0-27-52-34-0
0-30-21-36-37-5-29-45-4-0
0-7-38-11-14-35-8-46-0
0-17-40-32-25-9-39-12-26-0
0-6-33-23-43-41-42-22-28-0
Cost: 361
0-27-52-34-0
0-30-21-36-37-5-29-45-4-0
0-7-38-11-14-35-8-46-0
0-17-40-32-25-9-39-12-26-0
0-6-33-23-43-41-42-22-28-0
Cost: 361
0-27-52-34-0
0-30-21-36-37-5-29-45-4-0
0-7-38-11-14-35-8-46-0
0-17-40-32-25-9-39-12-26-0
0-6-33-23-43-41-42-22-28-0
Cost: 361
0-27-52-34-0
0-30-21-36-37-5-29-45-4-0
0-7-38-11-14-35-8-46-0
0-17-40-32-25-9-39-12-26-0
0-6-33-23-43-41-42-22-28-0
Cost: 361
0-27-52-34-0
0-30-21-36-37-5-29-45-4-0
0-7-38-11-14-35-8-46-0
0-17-40-32-25-9-39-12-26-0
0-6-33-23-43-41-42-22-28-0
Cost: 361
0-27-52-34-0
0-30-21-36-37-5-29-45-4-0
0-7-38-11-14-35-8-46-0
0-17-40-32-25-9-39-12-26-0
0-6-33-23-43-41-42-22-28-0
Cost: 361
0-27-52-34-0
0-30-21-36-37-5-29-45-4-0
0-7-38-11-14-35-8-46-0
0-17-40-32-25-9-39-12-26-0
0-6-33-23-43-41-42-22-28-0
Cost: 361
0-27-52-34-0
0-30-21-36-37-5-29-45-4-0
0-7-38-11-14-35-8-46-0
0-17-40-32-25-9-39-12-26-0
0-6-33-23-43-41-42-22-28-0
Cost: 361
0-27-52-34-0
0-30-21-36-37-5-29-45-4-0
0-7-38-11-14-35-8-46-0
0-17-40-32-25-9-39-12-26-0
0-6-33-23-43-41-42-22-28-0
Cost: 361
0-27-52-34-0
0-4-45-29-5-37-36-21-30-0
0-6-33-23-43-41-42-22-28-0
0-7-38-11-14-35-8-46-0
0-26-12-39-9-25-32-40-17-0
Cost: 361
0-27-52-34-0
0-30-21-36-37-5-29-45-4-0
0-7-38-11-14-35-8-46-0
0-17-40-32-25-9-39-12-26-0
0-6-33-23-43-41-42-22-28-0
Cost: 361
0-27-52-34-0
0-30-21-36-37-5-29-45-4-0
0-7-38-11-14-35-8-46-0
0-17-40-32-25-9-39-12-26-0
0-6-33-23-43-41-42-22-28-0
Cost: 361
0-27-52-34-0
0-30-21-36-37-5-29-45-4-0
0-7-38-11-14-35-8-46-0
0-17-40-32-25-9-39-12-26-0
0-6-33-23-43-41-42-22-28-0
Cost: 361
0-30-21-36-37-5-29-45-4-0
0-6-33-23-43-41-42-22-28-0
0-27-52-34-0
0-17-40-32-25-9-39-12-26-0
0-46-8-35-14-11-38-7-0
Cost: 361
0-2-28-22-42-41-43-23-33-0
0-17-40-32-25-9-39-12-26-0
0-4-45-29-5-37-36-21-30-0
0-27-52-34-0
0-7-38-11-14-35-8-46-0
Cost: 361
0-17-40-32-25-9-39-12-26-0
0-34-52-27-0
0-2-28-22-42-41-43-23-33-0
0-4-45-29-5-37-36-21-30-0
0-46-8-35-14-11-38-7-0
Cost: 361
0-6-33-23-43-41-42-22-28-0
0-26-12-39-9-25-32-40-17-0
0-4-45-29-5-37-36-21-30-0
0-46-8-35-14-11-38-7-0
0-27-52-34-0
Cost: 361
0-4-45-29-5-37-36-21-30-0
0-27-52-34-0
0-17-40-32-25-9-39-12-26-0
0-6-33-23-43-41-42-22-28-0
0-7-38-11-14-35-8-46-0
